/*********************************************
 * OPL 12.6.0.0 Data
 * Author: Adrian Rodriguez Bazaga, Pau Rodriguez Esmerats
 * Creation Date: 01/12/2017 at 09:09:14
 *********************************************/

nNurses=541;
maxConsec=2;
maxPresence=7;
maxHours=5;
minHours=1;
demand= [115 103 143 162 103 143 162 111 93 60 13 19 23 26 32 18 28 13 19 7 99 168 78 144  ];
